11
1 1
2 8
3 10
4 5
5 5
6 8
7 1
8 6
9 7
10 5
31
0 1 96
1 0 96
0 2 74
2 0 74
0 3 46
3 0 46
0 4 28
4 0 28
0 5 27
5 0 27
0 6 40
6 0 40
0 7 47
7 0 47
0 8 19
8 0 19
0 9 92
9 0 92
0 10 72
10 0 72
1 5 98
1 7 13
1 10 65
2 7 79
3 4 1
3 6 17
3 9 58
3 10 52
4 8 43
5 10 28
6 7 44
